81571 74314 
81682 74239 
79503 75632 
81515 74350 
80959 74774 
79853 75449 
80233 75256 
81362 74478 
80806 74902 
80033 75348 
81209 74566 
82198 73837 
77192 76560 
77382 76503 
79713 75547 
81086 74667 
80440 75118 
80933 74795 
80633 74957 
83002 73175 
82862 73277 
79575 75586 
78905 75968 
79095 75911 
79424 75651 
83666 72615 
79624 75559 
78420 76144 
78325 76166 
79345 75709 
78610 76087 
78515 76109 
76140 76842 
74995 77089 
77880 76376 
78030 76285 
75819 76918 
76794 76700 
77018 76647 
74571 77116 
75185 77032 
75649 76947 
77331 76508 
78079 76258 
76442 76810 
73846 77138 
75364 76979 
73786 77170 
75918 76855 
